========================================================== 
File name: C:\DEGR\assets\definitions\MSRCPSP_Gen\200_40_64_10_D.def
Creation date: Wed May 03 10:47:41 CEST 2023
Website: http://imopse.ii.pwr.edu.pl/ 
Reference: 
Myszkowski P. B., Skowronski M. E., Olech L., Oslizlo K., 
Hybrid Ant Colony Optimization in solving Multi-Skill Resource-Constrained Project Scheduling Problem, 
Soft Computing, DOI: DOI 10.1007/s00500-014-1455-x 
========================================================== 
General characteristics: 
Tasks: 200
Resources: 40
Precedence relations: 63
Number of skill types: 10
========================================================== 
ResourceID 	 Salary 	 Skills 
1	 	 	13.2	 	 Q7: 0 	  Q2: 3 	  Q0: 2 	  Q6: 1 	  Q1: 0 	 
2	 	 	14.5	 	 Q5: 0 	  Q8: 2 	  Q7: 0 	  Q6: 2 	  Q9: 0 	  Q4: 1 	 
3	 	 	29.7	 	 Q1: 3 	  Q4: 1 	  Q6: 0 	  Q9: 0 	 
4	 	 	68.5	 	 Q0: 2 	  Q3: 1 	 
5	 	 	60.9	 	 Q7: 1 	  Q1: 3 	  Q8: 3 	  Q6: 0 	  Q2: 0 	 
6	 	 	27.2	 	 Q8: 2 	  Q9: 2 	  Q6: 2 	  Q7: 3 	  Q1: 3 	  Q3: 3 	  Q5: 0 	  Q2: 3 	  Q4: 2 	 
7	 	 	81.4	 	 Q9: 2 	  Q1: 1 	  Q6: 3 	  Q8: 2 	  Q4: 0 	  Q7: 1 	  Q5: 2 	  Q0: 1 	  Q3: 0 	 
8	 	 	72.9	 	 Q1: 3 	  Q5: 3 	  Q3: 3 	  Q4: 0 	  Q2: 2 	  Q8: 1 	  Q0: 2 	  Q6: 0 	  Q7: 1 	 
9	 	 	65.1	 	 Q2: 2 	  Q4: 0 	  Q3: 2 	  Q1: 3 	  Q8: 0 	  Q0: 1 	 
10	 	 	75.5	 	 Q0: 2 	  Q7: 1 	  Q1: 2 	  Q5: 3 	 
11	 	 	22.5	 	 Q3: 1 	 
12	 	 	53.1	 	 Q0: 2 	  Q2: 2 	  Q4: 0 	  Q5: 0 	 
13	 	 	95.7	 	 Q7: 3 	  Q0: 0 	  Q6: 1 	  Q1: 0 	  Q2: 1 	 
14	 	 	46.6	 	 Q5: 1 	  Q0: 0 	  Q3: 1 	  Q6: 0 	  Q7: 3 	  Q2: 2 	  Q8: 1 	  Q9: 3 	  Q4: 1 	 
15	 	 	69.3	 	 Q9: 3 	  Q6: 2 	  Q4: 0 	  Q3: 2 	  Q7: 2 	  Q0: 1 	  Q2: 2 	  Q8: 3 	  Q1: 2 	 
16	 	 	99.0	 	 Q4: 3 	 
17	 	 	37.3	 	 Q1: 1 	  Q8: 1 	  Q2: 1 	 
18	 	 	90.0	 	 Q6: 2 	  Q3: 1 	  Q7: 3 	  Q5: 2 	  Q1: 3 	  Q2: 2 	  Q4: 1 	  Q8: 3 	 
19	 	 	25.6	 	 Q5: 3 	  Q9: 3 	 
20	 	 	74.4	 	 Q3: 0 	  Q8: 2 	  Q1: 3 	  Q0: 3 	  Q5: 3 	  Q4: 1 	  Q9: 0 	 
21	 	 	34.1	 	 Q1: 1 	  Q3: 0 	  Q5: 0 	  Q8: 3 	  Q2: 1 	  Q4: 0 	  Q0: 1 	 
22	 	 	41.2	 	 Q7: 3 	  Q4: 3 	  Q9: 1 	  Q0: 3 	  Q1: 3 	  Q3: 1 	 
23	 	 	81.6	 	 Q0: 3 	  Q5: 1 	  Q7: 3 	  Q6: 2 	  Q8: 0 	  Q4: 1 	  Q9: 1 	  Q2: 1 	  Q3: 3 	 
24	 	 	47.1	 	 Q0: 3 	 
25	 	 	25.4	 	 Q0: 0 	  Q4: 1 	  Q9: 1 	  Q8: 3 	  Q3: 1 	  Q1: 3 	  Q7: 0 	  Q5: 3 	  Q6: 3 	 
26	 	 	18.9	 	 Q9: 2 	  Q6: 2 	  Q0: 3 	  Q8: 3 	  Q1: 0 	  Q5: 0 	 
27	 	 	15.2	 	 Q1: 0 	 
28	 	 	26.1	 	 Q6: 2 	  Q9: 3 	  Q4: 1 	  Q0: 2 	 
29	 	 	58.3	 	 Q7: 1 	  Q1: 2 	 
30	 	 	57.6	 	 Q8: 2 	  Q3: 2 	  Q9: 1 	  Q6: 3 	 
31	 	 	81.4	 	 Q0: 3 	  Q6: 0 	  Q8: 3 	  Q9: 3 	  Q2: 3 	  Q3: 1 	  Q4: 2 	  Q5: 1 	 
32	 	 	94.6	 	 Q4: 0 	 
33	 	 	21.1	 	 Q5: 1 	  Q0: 2 	  Q9: 2 	 
34	 	 	44.9	 	 Q3: 0 	  Q7: 0 	  Q5: 1 	  Q9: 3 	  Q6: 3 	  Q1: 2 	  Q8: 0 	  Q2: 2 	 
35	 	 	56.4	 	 Q5: 3 	  Q4: 0 	  Q2: 3 	  Q7: 3 	  Q9: 3 	  Q3: 3 	  Q0: 2 	  Q8: 3 	 
36	 	 	30.1	 	 Q6: 1 	  Q7: 1 	  Q1: 2 	  Q3: 0 	  Q0: 1 	 
37	 	 	28.3	 	 Q1: 0 	 
38	 	 	67.8	 	 Q4: 1 	  Q2: 0 	  Q5: 1 	 
39	 	 	56.6	 	 Q1: 3 	  Q9: 3 	 
40	 	 	91.8	 	 Q5: 0 	  Q3: 0 	  Q9: 1 	  Q7: 2 	  Q2: 1 	  Q6: 2 	 
========================================================== 
TaskID 	 Duration 	 Skill 	 Predecessor IDs 
1	21	Q3:	1
2	10	Q2:	1
3	37	Q0:	0
4	9	Q6:	2
5	31	Q4:	1
6	25	Q4:	3
7	35	Q2:	0
8	31	Q5:	0
9	18	Q9:	3
10	27	Q5:	1
11	35	Q4:	1
12	18	Q8:	3
13	17	Q6:	3
14	29	Q9:	3
15	40	Q6:	1
16	34	Q2:	2
17	10	Q1:	2
18	18	Q4:	3
19	39	Q9:	2
20	30	Q6:	2
21	11	Q2:	1
22	21	Q6:	3
23	23	Q4:	3	7
24	25	Q0:	0
25	38	Q4:	3
26	39	Q3:	1
27	18	Q5:	1
28	31	Q5:	2
29	40	Q7:	3
30	27	Q2:	0
31	36	Q7:	2
32	25	Q0:	3
33	32	Q2:	1
34	28	Q8:	3
35	33	Q9:	3	19	16
36	33	Q8:	0
37	10	Q8:	1
38	30	Q1:	2
39	37	Q4:	0
40	38	Q4:	2
41	21	Q8:	0
42	25	Q0:	3	29
43	36	Q9:	3	34
44	22	Q9:	2
45	27	Q9:	1
46	10	Q6:	1
47	22	Q7:	2
48	15	Q4:	2
49	22	Q9:	1
50	32	Q9:	1
51	17	Q2:	2	31
52	14	Q3:	3
53	22	Q9:	3
54	17	Q8:	1	32
55	28	Q9:	0
56	13	Q9:	2
57	40	Q2:	0	48
58	29	Q2:	2
59	24	Q4:	3	23
60	32	Q3:	1
61	28	Q7:	1	11
62	17	Q1:	1	13
63	17	Q8:	2
64	37	Q7:	0	42
65	23	Q0:	1
66	28	Q4:	0
67	27	Q8:	2
68	37	Q7:	1
69	32	Q5:	2
70	37	Q3:	3
71	25	Q9:	1
72	11	Q1:	0
73	21	Q2:	0
74	26	Q9:	1	13
75	18	Q5:	0
76	35	Q8:	0
77	19	Q7:	1	66
78	25	Q0:	0	64
79	14	Q9:	2
80	14	Q9:	1
81	34	Q1:	0
82	16	Q1:	1
83	22	Q5:	3
84	29	Q0:	2
85	12	Q3:	0
86	21	Q6:	2
87	9	Q6:	0	49
88	20	Q2:	1
89	18	Q3:	0
90	11	Q0:	0
91	17	Q5:	2
92	35	Q9:	1	73
93	9	Q7:	0
94	19	Q1:	3
95	36	Q0:	1
96	38	Q3:	3
97	28	Q0:	0	69
98	24	Q1:	2
99	22	Q5:	1
100	30	Q3:	3
101	15	Q6:	0
102	22	Q1:	2
103	12	Q0:	2
104	32	Q8:	0
105	16	Q6:	1
106	19	Q2:	3	1
107	13	Q8:	3	77
108	21	Q9:	3
109	29	Q7:	0
110	12	Q7:	3
111	32	Q7:	1
112	29	Q7:	1	21
113	28	Q8:	1
114	36	Q8:	0	81
115	40	Q0:	3
116	31	Q1:	0	9	103
117	38	Q2:	3	14
118	15	Q5:	3	53
119	39	Q0:	0
120	15	Q5:	1
121	35	Q3:	2
122	34	Q7:	2
123	39	Q8:	0	108	4
124	32	Q6:	3
125	17	Q5:	0	104	117
126	30	Q6:	2
127	18	Q5:	3	78	87
128	33	Q8:	0	127
129	30	Q9:	0
130	25	Q4:	1	108
131	39	Q1:	0
132	11	Q7:	3
133	10	Q1:	2	51
134	17	Q2:	0
135	37	Q1:	2
136	25	Q7:	1
137	39	Q7:	3
138	20	Q1:	3
139	38	Q7:	2
140	40	Q3:	1	101
141	10	Q0:	0
142	39	Q5:	0
143	27	Q0:	3
144	34	Q7:	1	40
145	9	Q6:	3	64
146	34	Q4:	2
147	35	Q3:	0
148	10	Q9:	3
149	33	Q4:	1
150	30	Q7:	1	134	22
151	9	Q5:	2
152	20	Q2:	2	85
153	31	Q3:	1
154	39	Q3:	3
155	33	Q2:	0	75
156	39	Q7:	1
157	36	Q8:	3	27
158	34	Q0:	3
159	10	Q9:	1	117
160	37	Q8:	2
161	38	Q6:	1
162	12	Q2:	0
163	40	Q6:	3
164	11	Q2:	0
165	38	Q1:	1
166	23	Q6:	2
167	28	Q6:	0	52
168	39	Q4:	2	134
169	38	Q3:	0
170	12	Q7:	1
171	25	Q1:	1
172	19	Q5:	2	96
173	22	Q5:	2	130
174	36	Q8:	3
175	35	Q6:	1
176	31	Q5:	1
177	10	Q0:	1
178	24	Q1:	1
179	8	Q2:	1
180	31	Q6:	1
181	26	Q5:	1	87
182	30	Q4:	2
183	32	Q7:	2
184	19	Q0:	1	78
185	32	Q6:	0
186	37	Q3:	2
187	31	Q1:	1	174
188	21	Q7:	3	140	84
189	24	Q9:	1	10
190	28	Q8:	0	45
191	14	Q4:	0	86
192	28	Q9:	2
193	40	Q9:	0
194	26	Q1:	1	132	26
195	24	Q6:	1
196	40	Q2:	0	155
197	29	Q5:	1	176	30
198	22	Q7:	0	135
199	30	Q6:	0
200	36	Q8:	3	18
========================================================== 